WARNING: for repeatability, setting FPU to use double precision
============================[ Problem Statistics ]=============================
|                                                                             |
|  Number of variables:            50                                         |
|  Number of clauses:             218                                         |
|  Parse time:                   0.00 s                                       |
|                                                                             |
============================[ Search Statistics ]==============================
| Conflicts |          ORIGINAL         |          LEARNT          | Progress |
|           |    Vars  Clauses Literals |    Limit  Clauses Lit/Cl |          |
===============================================================================
===============================================================================
restarts              : 1
conflicts             : 86             (56803 /sec)
decisions             : 106            (0.00 % random) (70013 /sec)
propagations          : 1119           (739102 /sec)
conflict literals     : 371            (12.50 % deleted)
Memory used           : 20.00 MB
CPU time              : 0.001514 s

UNSATISFIABLE
